output/grafting_ilp.lp
Maximize
  7.0294010533025687e-04 Z_528_1_0 + 9.4405666893837396e-04 Z_528_1_1
   + 0.6546219081883974 Z_528_1_2 + 0.00139639625665029 Z_528_1_3
   + 0.2423346987806837 Z_528_1_4 + 0.6458992706765961 Z_528_2_0
   + 0.0127895194007971 Z_528_2_1 + 0.0143513939923133 Z_528_2_2
   + 0.0246004658761064 Z_528_2_3 + 0.202359350054187 Z_528_2_4
   + 7.0294010533025687e-04 Z_528_0_0 + 9.4405666893837396e-04 Z_528_0_1
   + 0.6546219081883974 Z_528_0_2 + 0.00139639625665029 Z_528_0_3
   + 0.2423346987806837 Z_528_0_4 + 3.9763047238816716e-04 Z_577_0_0
   + 0.00102696945687522 Z_577_0_1 + 0.7200233996511981 Z_577_0_2
   + 0.00115132030189769 Z_577_0_3 + 0.1774006801176409 Z_577_0_4
   + 3.7228485738747017e-04 Z_14_0_0 + 0.00318493455589254 Z_14_0_1
   + 0.7350217452365392 Z_14_0_2 + 0.00101617059858958 Z_14_0_3
   + 0.1604048647515913 Z_14_0_4 + 0.00173618633767736 Z_447_0_0
   + 5.5933671538377166e-04 Z_447_0_1 + 0.6418880115771978 Z_447_0_2
   + 0.00222072300505679 Z_447_0_3 + 0.2535957423646843 Z_447_0_4
   + 4.1725750528472517e-04 Z_626_0_0 + 0.00116737755546529 Z_626_0_1
   + 0.8514181571390499 Z_626_0_2 + 0.0118980016372649 Z_626_0_3
   + 0.0350992061629353 Z_626_0_4 + 0.00204695557235009 Z_695_0_0
   + 6.6938563617817231e-04 Z_695_0_1 + 0.6445061036995878 Z_695_0_2
   + 0.00481510587539172 Z_695_0_3 + 0.2479624492164923 Z_695_0_4
   + 0.00202777217846585 Z_359_0_0 + 6.6382781912211408e-04 Z_359_0_1
   + 0.6668314873256288 Z_359_0_2 + 0.00476255415580916 Z_359_0_3
   + 0.225714358520974 Z_359_0_4 + 0.00153204146815992 Z_474_0_0
   + 6.8329022609784826e-04 Z_474_0_1 + 0.6612824006261688 Z_474_0_2
   + 0.00111436729268671 Z_474_0_3 + 0.2353879003868868 Z_474_0_4
   + 0.00136114385602821 Z_631_0_0 + 3.285604815264456e-04 Z_631_0_1
   + 0.6746253426582151 Z_631_0_2 + 0.00683850464994324 Z_631_0_3
   + 0.216846448354287 Z_631_0_4 + 0.0024664018406995 Z_449_0_0
   + 0.00190233307724614 Z_449_0_1 + 0.6693582057105213 Z_449_0_2
   + 0.00931031441426853 Z_449_0_3 + 0.2169627449572646 Z_449_0_4
Subject To
 constraint1_5281: Z_528_1_0 + Z_528_1_1 + Z_528_1_2 + Z_528_1_3
   + Z_528_1_4 <= 1
 constraint1_5282: Z_528_2_0 + Z_528_2_1 + Z_528_2_2 + Z_528_2_3
   + Z_528_2_4 <= 1
 constraint1_5280: Z_528_0_0 + Z_528_0_1 + Z_528_0_2 + Z_528_0_3
   + Z_528_0_4 <= 1
 constraint1_5770: Z_577_0_0 + Z_577_0_1 + Z_577_0_2 + Z_577_0_3
   + Z_577_0_4 <= 1
 constraint1_140: Z_14_0_0 + Z_14_0_1 + Z_14_0_2 + Z_14_0_3 + Z_14_0_4
   <= 1
 constraint1_4470: Z_447_0_0 + Z_447_0_1 + Z_447_0_2 + Z_447_0_3
   + Z_447_0_4 <= 1
 constraint1_6260: Z_626_0_0 + Z_626_0_1 + Z_626_0_2 + Z_626_0_3
   + Z_626_0_4 <= 1
 constraint1_6950: Z_695_0_0 + Z_695_0_1 + Z_695_0_2 + Z_695_0_3
   + Z_695_0_4 <= 1
 constraint1_3590: Z_359_0_0 + Z_359_0_1 + Z_359_0_2 + Z_359_0_3
   + Z_359_0_4 <= 1
 constraint1_4740: Z_474_0_0 + Z_474_0_1 + Z_474_0_2 + Z_474_0_3
   + Z_474_0_4 <= 1
 constraint1_6310: Z_631_0_0 + Z_631_0_1 + Z_631_0_2 + Z_631_0_3
   + Z_631_0_4 <= 1
 constraint1_4490: Z_449_0_0 + Z_449_0_1 + Z_449_0_2 + Z_449_0_3
   + Z_449_0_4 <= 1
 constraint2_5280: Z_528_1_0 + Z_528_2_0 + Z_528_0_0 <= 1
 constraint2_5281: Z_528_1_1 + Z_528_2_1 + Z_528_0_1 <= 1
 constraint2_5282: Z_528_1_2 + Z_528_2_2 + Z_528_0_2 <= 1
 constraint2_5283: Z_528_1_3 + Z_528_2_3 + Z_528_0_3 <= 1
 constraint2_5770: Z_577_0_0 <= 1
 constraint2_5771: Z_577_0_1 <= 1
 constraint2_5772: Z_577_0_2 <= 1
 constraint2_5773: Z_577_0_3 <= 1
 constraint2_1590: <= 1
 constraint2_1591: <= 1
 constraint2_1592: <= 1
 constraint2_1593: <= 1
 constraint2_140: Z_14_0_0 <= 1
 constraint2_141: Z_14_0_1 <= 1
 constraint2_142: Z_14_0_2 <= 1
 constraint2_143: Z_14_0_3 <= 1
 constraint2_4470: Z_447_0_0 <= 1
 constraint2_4471: Z_447_0_1 <= 1
 constraint2_4472: Z_447_0_2 <= 1
 constraint2_4473: Z_447_0_3 <= 1
 constraint2_6260: Z_626_0_0 <= 1
 constraint2_6261: Z_626_0_1 <= 1
 constraint2_6262: Z_626_0_2 <= 1
 constraint2_6263: Z_626_0_3 <= 1
 constraint2_3800: <= 1
 constraint2_3801: <= 1
 constraint2_3802: <= 1
 constraint2_3803: <= 1
 constraint2_6950: Z_695_0_0 <= 1
 constraint2_6951: Z_695_0_1 <= 1
 constraint2_6952: Z_695_0_2 <= 1
 constraint2_6953: Z_695_0_3 <= 1
 constraint2_3590: Z_359_0_0 <= 1
 constraint2_3591: Z_359_0_1 <= 1
 constraint2_3592: Z_359_0_2 <= 1
 constraint2_3593: Z_359_0_3 <= 1
 constraint2_4740: Z_474_0_0 <= 1
 constraint2_4741: Z_474_0_1 <= 1
 constraint2_4742: Z_474_0_2 <= 1
 constraint2_4743: Z_474_0_3 <= 1
 constraint2_6310: Z_631_0_0 <= 1
 constraint2_6311: Z_631_0_1 <= 1
 constraint2_6312: Z_631_0_2 <= 1
 constraint2_6313: Z_631_0_3 <= 1
 constraint2_4490: Z_449_0_0 <= 1
 constraint2_4491: Z_449_0_1 <= 1
 constraint2_4492: Z_449_0_2 <= 1
 constraint2_4493: Z_449_0_3 <= 1
Bounds
Binaries
 Z_528_1_0 Z_528_1_1 Z_528_1_2 Z_528_1_3 Z_528_1_4 Z_528_2_0 Z_528_2_1
 Z_528_2_2 Z_528_2_3 Z_528_2_4 Z_528_0_0 Z_528_0_1 Z_528_0_2 Z_528_0_3
 Z_528_0_4 Z_577_0_0 Z_577_0_1 Z_577_0_2 Z_577_0_3 Z_577_0_4 Z_14_0_0
 Z_14_0_1 Z_14_0_2 Z_14_0_3 Z_14_0_4 Z_447_0_0 Z_447_0_1 Z_447_0_2
 Z_447_0_3 Z_447_0_4 Z_626_0_0 Z_626_0_1 Z_626_0_2 Z_626_0_3 Z_626_0_4
 Z_695_0_0 Z_695_0_1 Z_695_0_2 Z_695_0_3 Z_695_0_4 Z_359_0_0 Z_359_0_1
 Z_359_0_2 Z_359_0_3 Z_359_0_4 Z_474_0_0 Z_474_0_1 Z_474_0_2 Z_474_0_3
 Z_474_0_4 Z_631_0_0 Z_631_0_1 Z_631_0_2 Z_631_0_3 Z_631_0_4 Z_449_0_0
 Z_449_0_1 Z_449_0_2 Z_449_0_3 Z_449_0_4
End
