output/grafting_ilp.mps
NAME grafting_srl_ilp
* Max problem is converted into Min one
ROWS
 N  OBJ
 L  constraint1_5281
 L  constraint1_5282
 L  constraint1_5280
 L  constraint1_5770
 L  constraint1_140
 L  constraint1_4470
 L  constraint1_6260
 L  constraint1_6950
 L  constraint1_3590
 L  constraint1_4740
 L  constraint1_6310
 L  constraint1_4490
 L  constraint2_5280
 L  constraint2_5281
 L  constraint2_5282
 L  constraint2_5283
 L  constraint2_5770
 L  constraint2_5771
 L  constraint2_5772
 L  constraint2_5773
 L  constraint2_1590
 L  constraint2_1591
 L  constraint2_1592
 L  constraint2_1593
 L  constraint2_140
 L  constraint2_141
 L  constraint2_142
 L  constraint2_143
 L  constraint2_4470
 L  constraint2_4471
 L  constraint2_4472
 L  constraint2_4473
 L  constraint2_6260
 L  constraint2_6261
 L  constraint2_6262
 L  constraint2_6263
 L  constraint2_3800
 L  constraint2_3801
 L  constraint2_3802
 L  constraint2_3803
 L  constraint2_6950
 L  constraint2_6951
 L  constraint2_6952
 L  constraint2_6953
 L  constraint2_3590
 L  constraint2_3591
 L  constraint2_3592
 L  constraint2_3593
 L  constraint2_4740
 L  constraint2_4741
 L  constraint2_4742
 L  constraint2_4743
 L  constraint2_6310
 L  constraint2_6311
 L  constraint2_6312
 L  constraint2_6313
 L  constraint2_4490
 L  constraint2_4491
 L  constraint2_4492
 L  constraint2_4493
COLUMNS
    MARKER    'MARKER'                 'INTORG'
    Z_528_1_0  OBJ       -7.0294010533025687e-04
    Z_528_1_0  constraint1_5281  1
    Z_528_1_0  constraint2_5280  1
    Z_528_1_1  OBJ       -9.4405666893837396e-04
    Z_528_1_1  constraint1_5281  1
    Z_528_1_1  constraint2_5281  1
    Z_528_1_2  OBJ       -6.5462190818839738e-01
    Z_528_1_2  constraint1_5281  1
    Z_528_1_2  constraint2_5282  1
    Z_528_1_3  OBJ       -1.3963962566502907e-03
    Z_528_1_3  constraint1_5281  1
    Z_528_1_3  constraint2_5283  1
    Z_528_1_4  OBJ       -2.4233469878068367e-01
    Z_528_1_4  constraint1_5281  1
    Z_528_2_0  OBJ       -6.4589927067659614e-01
    Z_528_2_0  constraint1_5282  1
    Z_528_2_0  constraint2_5280  1
    Z_528_2_1  OBJ       -1.2789519400797070e-02
    Z_528_2_1  constraint1_5282  1
    Z_528_2_1  constraint2_5281  1
    Z_528_2_2  OBJ       -1.4351393992313303e-02
    Z_528_2_2  constraint1_5282  1
    Z_528_2_2  constraint2_5282  1
    Z_528_2_3  OBJ       -2.4600465876106446e-02
    Z_528_2_3  constraint1_5282  1
    Z_528_2_3  constraint2_5283  1
    Z_528_2_4  OBJ       -2.0235935005418704e-01
    Z_528_2_4  constraint1_5282  1
    Z_528_0_0  OBJ       -7.0294010533025687e-04
    Z_528_0_0  constraint1_5280  1
    Z_528_0_0  constraint2_5280  1
    Z_528_0_1  OBJ       -9.4405666893837396e-04
    Z_528_0_1  constraint1_5280  1
    Z_528_0_1  constraint2_5281  1
    Z_528_0_2  OBJ       -6.5462190818839738e-01
    Z_528_0_2  constraint1_5280  1
    Z_528_0_2  constraint2_5282  1
    Z_528_0_3  OBJ       -1.3963962566502907e-03
    Z_528_0_3  constraint1_5280  1
    Z_528_0_3  constraint2_5283  1
    Z_528_0_4  OBJ       -2.4233469878068367e-01
    Z_528_0_4  constraint1_5280  1
    Z_577_0_0  OBJ       -3.9763047238816716e-04
    Z_577_0_0  constraint1_5770  1
    Z_577_0_0  constraint2_5770  1
    Z_577_0_1  OBJ       -1.0269694568752227e-03
    Z_577_0_1  constraint1_5770  1
    Z_577_0_1  constraint2_5771  1
    Z_577_0_2  OBJ       -7.2002339965119810e-01
    Z_577_0_2  constraint1_5770  1
    Z_577_0_2  constraint2_5772  1
    Z_577_0_3  OBJ       -1.1513203018976861e-03
    Z_577_0_3  constraint1_5770  1
    Z_577_0_3  constraint2_5773  1
    Z_577_0_4  OBJ       -1.7740068011764093e-01
    Z_577_0_4  constraint1_5770  1
    Z_14_0_0  OBJ       -3.7228485738747017e-04
    Z_14_0_0  constraint1_140  1
    Z_14_0_0  constraint2_140  1
    Z_14_0_1  OBJ       -3.1849345558925364e-03
    Z_14_0_1  constraint1_140  1
    Z_14_0_1  constraint2_141  1
    Z_14_0_2  OBJ       -7.3502174523653918e-01
    Z_14_0_2  constraint1_140  1
    Z_14_0_2  constraint2_142  1
    Z_14_0_3  OBJ       -1.0161705985895814e-03
    Z_14_0_3  constraint1_140  1
    Z_14_0_3  constraint2_143  1
    Z_14_0_4  OBJ       -1.6040486475159127e-01
    Z_14_0_4  constraint1_140  1
    Z_447_0_0  OBJ       -1.7361863376773562e-03
    Z_447_0_0  constraint1_4470  1
    Z_447_0_0  constraint2_4470  1
    Z_447_0_1  OBJ       -5.5933671538377166e-04
    Z_447_0_1  constraint1_4470  1
    Z_447_0_1  constraint2_4471  1
    Z_447_0_2  OBJ       -6.4188801157719777e-01
    Z_447_0_2  constraint1_4470  1
    Z_447_0_2  constraint2_4472  1
    Z_447_0_3  OBJ       -2.2207230050567922e-03
    Z_447_0_3  constraint1_4470  1
    Z_447_0_3  constraint2_4473  1
    Z_447_0_4  OBJ       -2.5359574236468430e-01
    Z_447_0_4  constraint1_4470  1
    Z_626_0_0  OBJ       -4.1725750528472517e-04
    Z_626_0_0  constraint1_6260  1
    Z_626_0_0  constraint2_6260  1
    Z_626_0_1  OBJ       -1.1673775554652929e-03
    Z_626_0_1  constraint1_6260  1
    Z_626_0_1  constraint2_6261  1
    Z_626_0_2  OBJ       -8.5141815713904989e-01
    Z_626_0_2  constraint1_6260  1
    Z_626_0_2  constraint2_6262  1
    Z_626_0_3  OBJ       -1.1898001637264864e-02
    Z_626_0_3  constraint1_6260  1
    Z_626_0_3  constraint2_6263  1
    Z_626_0_4  OBJ       -3.5099206162935284e-02
    Z_626_0_4  constraint1_6260  1
    Z_695_0_0  OBJ       -2.0469555723500944e-03
    Z_695_0_0  constraint1_6950  1
    Z_695_0_0  constraint2_6950  1
    Z_695_0_1  OBJ       -6.6938563617817231e-04
    Z_695_0_1  constraint1_6950  1
    Z_695_0_1  constraint2_6951  1
    Z_695_0_2  OBJ       -6.4450610369958783e-01
    Z_695_0_2  constraint1_6950  1
    Z_695_0_2  constraint2_6952  1
    Z_695_0_3  OBJ       -4.8151058753917227e-03
    Z_695_0_3  constraint1_6950  1
    Z_695_0_3  constraint2_6953  1
    Z_695_0_4  OBJ       -2.4796244921649227e-01
    Z_695_0_4  constraint1_6950  1
    Z_359_0_0  OBJ       -2.0277721784658464e-03
    Z_359_0_0  constraint1_3590  1
    Z_359_0_0  constraint2_3590  1
    Z_359_0_1  OBJ       -6.6382781912211408e-04
    Z_359_0_1  constraint1_3590  1
    Z_359_0_1  constraint2_3591  1
    Z_359_0_2  OBJ       -6.6683148732562880e-01
    Z_359_0_2  constraint1_3590  1
    Z_359_0_2  constraint2_3592  1
    Z_359_0_3  OBJ       -4.7625541558091620e-03
    Z_359_0_3  constraint1_3590  1
    Z_359_0_3  constraint2_3593  1
    Z_359_0_4  OBJ       -2.2571435852097399e-01
    Z_359_0_4  constraint1_3590  1
    Z_474_0_0  OBJ       -1.5320414681599241e-03
    Z_474_0_0  constraint1_4740  1
    Z_474_0_0  constraint2_4740  1
    Z_474_0_1  OBJ       -6.8329022609784826e-04
    Z_474_0_1  constraint1_4740  1
    Z_474_0_1  constraint2_4741  1
    Z_474_0_2  OBJ       -6.6128240062616883e-01
    Z_474_0_2  constraint1_4740  1
    Z_474_0_2  constraint2_4742  1
    Z_474_0_3  OBJ       -1.1143672926867067e-03
    Z_474_0_3  constraint1_4740  1
    Z_474_0_3  constraint2_4743  1
    Z_474_0_4  OBJ       -2.3538790038688676e-01
    Z_474_0_4  constraint1_4740  1
    Z_631_0_0  OBJ       -1.3611438560282099e-03
    Z_631_0_0  constraint1_6310  1
    Z_631_0_0  constraint2_6310  1
    Z_631_0_1  OBJ       -3.2856048152644560e-04
    Z_631_0_1  constraint1_6310  1
    Z_631_0_1  constraint2_6311  1
    Z_631_0_2  OBJ       -6.7462534265821505e-01
    Z_631_0_2  constraint1_6310  1
    Z_631_0_2  constraint2_6312  1
    Z_631_0_3  OBJ       -6.8385046499432438e-03
    Z_631_0_3  constraint1_6310  1
    Z_631_0_3  constraint2_6313  1
    Z_631_0_4  OBJ       -2.1684644835428701e-01
    Z_631_0_4  constraint1_6310  1
    Z_449_0_0  OBJ       -2.4664018406994987e-03
    Z_449_0_0  constraint1_4490  1
    Z_449_0_0  constraint2_4490  1
    Z_449_0_1  OBJ       -1.9023330772461415e-03
    Z_449_0_1  constraint1_4490  1
    Z_449_0_1  constraint2_4491  1
    Z_449_0_2  OBJ       -6.6935820571052129e-01
    Z_449_0_2  constraint1_4490  1
    Z_449_0_2  constraint2_4492  1
    Z_449_0_3  OBJ       -9.3103144142685293e-03
    Z_449_0_3  constraint1_4490  1
    Z_449_0_3  constraint2_4493  1
    Z_449_0_4  OBJ       -2.1696274495726456e-01
    Z_449_0_4  constraint1_4490  1
    MARKER    'MARKER'                 'INTEND'
RHS
    RHS1      constraint1_5281  1
    RHS1      constraint1_5282  1
    RHS1      constraint1_5280  1
    RHS1      constraint1_5770  1
    RHS1      constraint1_140  1
    RHS1      constraint1_4470  1
    RHS1      constraint1_6260  1
    RHS1      constraint1_6950  1
    RHS1      constraint1_3590  1
    RHS1      constraint1_4740  1
    RHS1      constraint1_6310  1
    RHS1      constraint1_4490  1
    RHS1      constraint2_5280  1
    RHS1      constraint2_5281  1
    RHS1      constraint2_5282  1
    RHS1      constraint2_5283  1
    RHS1      constraint2_5770  1
    RHS1      constraint2_5771  1
    RHS1      constraint2_5772  1
    RHS1      constraint2_5773  1
    RHS1      constraint2_1590  1
    RHS1      constraint2_1591  1
    RHS1      constraint2_1592  1
    RHS1      constraint2_1593  1
    RHS1      constraint2_140  1
    RHS1      constraint2_141  1
    RHS1      constraint2_142  1
    RHS1      constraint2_143  1
    RHS1      constraint2_4470  1
    RHS1      constraint2_4471  1
    RHS1      constraint2_4472  1
    RHS1      constraint2_4473  1
    RHS1      constraint2_6260  1
    RHS1      constraint2_6261  1
    RHS1      constraint2_6262  1
    RHS1      constraint2_6263  1
    RHS1      constraint2_3800  1
    RHS1      constraint2_3801  1
    RHS1      constraint2_3802  1
    RHS1      constraint2_3803  1
    RHS1      constraint2_6950  1
    RHS1      constraint2_6951  1
    RHS1      constraint2_6952  1
    RHS1      constraint2_6953  1
    RHS1      constraint2_3590  1
    RHS1      constraint2_3591  1
    RHS1      constraint2_3592  1
    RHS1      constraint2_3593  1
    RHS1      constraint2_4740  1
    RHS1      constraint2_4741  1
    RHS1      constraint2_4742  1
    RHS1      constraint2_4743  1
    RHS1      constraint2_6310  1
    RHS1      constraint2_6311  1
    RHS1      constraint2_6312  1
    RHS1      constraint2_6313  1
    RHS1      constraint2_4490  1
    RHS1      constraint2_4491  1
    RHS1      constraint2_4492  1
    RHS1      constraint2_4493  1
BOUNDS
 UP BND1      Z_528_1_0  1
 UP BND1      Z_528_1_1  1
 UP BND1      Z_528_1_2  1
 UP BND1      Z_528_1_3  1
 UP BND1      Z_528_1_4  1
 UP BND1      Z_528_2_0  1
 UP BND1      Z_528_2_1  1
 UP BND1      Z_528_2_2  1
 UP BND1      Z_528_2_3  1
 UP BND1      Z_528_2_4  1
 UP BND1      Z_528_0_0  1
 UP BND1      Z_528_0_1  1
 UP BND1      Z_528_0_2  1
 UP BND1      Z_528_0_3  1
 UP BND1      Z_528_0_4  1
 UP BND1      Z_577_0_0  1
 UP BND1      Z_577_0_1  1
 UP BND1      Z_577_0_2  1
 UP BND1      Z_577_0_3  1
 UP BND1      Z_577_0_4  1
 UP BND1      Z_14_0_0  1
 UP BND1      Z_14_0_1  1
 UP BND1      Z_14_0_2  1
 UP BND1      Z_14_0_3  1
 UP BND1      Z_14_0_4  1
 UP BND1      Z_447_0_0  1
 UP BND1      Z_447_0_1  1
 UP BND1      Z_447_0_2  1
 UP BND1      Z_447_0_3  1
 UP BND1      Z_447_0_4  1
 UP BND1      Z_626_0_0  1
 UP BND1      Z_626_0_1  1
 UP BND1      Z_626_0_2  1
 UP BND1      Z_626_0_3  1
 UP BND1      Z_626_0_4  1
 UP BND1      Z_695_0_0  1
 UP BND1      Z_695_0_1  1
 UP BND1      Z_695_0_2  1
 UP BND1      Z_695_0_3  1
 UP BND1      Z_695_0_4  1
 UP BND1      Z_359_0_0  1
 UP BND1      Z_359_0_1  1
 UP BND1      Z_359_0_2  1
 UP BND1      Z_359_0_3  1
 UP BND1      Z_359_0_4  1
 UP BND1      Z_474_0_0  1
 UP BND1      Z_474_0_1  1
 UP BND1      Z_474_0_2  1
 UP BND1      Z_474_0_3  1
 UP BND1      Z_474_0_4  1
 UP BND1      Z_631_0_0  1
 UP BND1      Z_631_0_1  1
 UP BND1      Z_631_0_2  1
 UP BND1      Z_631_0_3  1
 UP BND1      Z_631_0_4  1
 UP BND1      Z_449_0_0  1
 UP BND1      Z_449_0_1  1
 UP BND1      Z_449_0_2  1
 UP BND1      Z_449_0_3  1
 UP BND1      Z_449_0_4  1
ENDATA
