output/grafting_ilp.sol
# Solution for model grafting_srl_ilp
# Objective value = 7.8078107312697842e+00
Z_528_1_0 0
Z_528_1_1 0
Z_528_1_2 0
Z_528_1_3 0
Z_528_1_4 1
Z_528_2_0 1
Z_528_2_1 0
Z_528_2_2 0
Z_528_2_3 0
Z_528_2_4 0
Z_528_0_0 0
Z_528_0_1 0
Z_528_0_2 1
Z_528_0_3 0
Z_528_0_4 0
Z_577_0_0 0
Z_577_0_1 0
Z_577_0_2 1
Z_577_0_3 0
Z_577_0_4 0
Z_14_0_0 0
Z_14_0_1 0
Z_14_0_2 1
Z_14_0_3 0
Z_14_0_4 0
Z_447_0_0 0
Z_447_0_1 0
Z_447_0_2 1
Z_447_0_3 0
Z_447_0_4 0
Z_626_0_0 0
Z_626_0_1 0
Z_626_0_2 1
Z_626_0_3 0
Z_626_0_4 0
Z_695_0_0 0
Z_695_0_1 0
Z_695_0_2 1
Z_695_0_3 0
Z_695_0_4 0
Z_359_0_0 0
Z_359_0_1 0
Z_359_0_2 1
Z_359_0_3 0
Z_359_0_4 0
Z_474_0_0 0
Z_474_0_1 0
Z_474_0_2 1
Z_474_0_3 0
Z_474_0_4 0
Z_631_0_0 0
Z_631_0_1 0
Z_631_0_2 1
Z_631_0_3 0
Z_631_0_4 0
Z_449_0_0 0
Z_449_0_1 0
Z_449_0_2 1
Z_449_0_3 0
Z_449_0_4 0
